50
54
0 1 99 1.1
0 2 99 1.1
0 3 99 1.1
0 4 99 1.1
0 5 99 1.1
0 6 99 1.1
0 7 99 1.1
0 8 99 1.1
0 9 99 1.1
0 10 99 1.1
0 11 99 1.1
0 12 99 1.1
0 13 99 1.1
0 14 99 1.1
0 15 99 1.1
0 16 99 1.1
0 17 99 1.1
0 18 99 1.1
0 19 99 1.1
0 20 99 1.1
0 21 99 1.1
0 22 99 1.1
0 23 99 0.1
0 24 99 1.1
0 25 99 1.1
0 26 99 1.1
0 27 99 1.1
0 28 99 1.1
0 29 99 1.1
0 30 99 1.1
0 31 99 1.1
0 32 99 1.1
0 33 99 1.1
0 34 99 1.1
0 35 99 1.1
0 36 99 1.1
0 37 99 1.1
0 38 99 1.1
0 39 99 1.1
0 40 99 1.1
0 41 99 1.1
0 42 99 1.1
0 43 99 1.1
0 44 99 1.1
0 45 99 1.1
0 46 99 1.1
0 47 99 1.1
0 48 99 1.1
0 49 99 1.1
1 2 99 1.1
1 3 99 1.1
1 4 99 1.1
1 5 99 1.1
1 6 99 1.1
1 7 99 1.1
1 8 99 1.1
1 9 99 1.1
1 10 99 1.1
1 11 99 1.1
1 12 99 1.1
1 13 99 1.1
1 14 99 1.1
1 15 99 1.1
1 16 99 1.1
1 17 99 1.1
1 18 99 1.1
1 19 99 1.1
1 20 99 1.1
1 21 99 1.1
1 22 99 1.1
1 23 99 1.1
1 24 99 1.1
1 25 99 1.1
1 26 99 1.1
1 27 99 1.1
1 28 99 1.1
1 29 99 1.1
1 30 99 1.1
1 31 99 1.1
1 32 99 1.1
1 33 99 1.1
1 34 99 1.1
1 35 99 1.1
1 36 99 1.1
1 37 99 1.1
1 38 99 1.1
1 39 99 1.1
1 40 99 1.1
1 41 99 1.1
1 42 99 1.1
1 43 99 1.1
1 44 99 1.1
1 45 99 1.1
1 46 99 1.1
1 47 99 1.1
1 48 99 1.1
1 49 99 1.1
2 3 99 1.1
2 4 99 1.1
2 5 99 1.1
2 6 99 1.1
2 7 99 1.1
2 8 99 1.1
2 9 99 1.1
2 10 99 1.1
2 11 99 1.1
2 12 99 1.1
2 13 99 1.1
2 14 99 1.1
2 15 99 1.1
2 16 99 1.1
2 17 99 1.1
2 18 99 1.1
2 19 99 1.1
2 20 99 1.1
2 21 99 1.1
2 22 99 1.1
2 23 99 1.1
2 24 99 1.1
2 25 99 1.1
2 26 99 1.1
2 27 99 1.1
2 28 99 1.1
2 29 99 1.1
2 30 99 1.1
2 31 99 1.1
2 32 99 1.1
2 33 99 1.1
2 34 99 1.1
2 35 99 1.1
2 36 99 1.1
2 37 99 1.1
2 38 99 1.1
2 39 99 1.1
2 40 99 1.1
2 41 99 1.1
2 42 99 1.1
2 43 99 1.1
2 44 99 1.1
2 45 99 1.1
2 46 99 1.1
2 47 99 1.1
2 48 99 1.1
2 49 99 1.1
3 4 99 1.1
3 5 99 1.1
3 6 99 1.1
3 7 99 1.1
3 8 99 1.1
3 9 99 1.1
3 10 99 1.1
3 11 99 1.1
3 12 99 1.1
3 13 99 1.1
3 14 99 1.1
3 15 99 1.1
3 16 99 1.1
3 17 99 1.1
3 18 99 1.1
3 19 99 1.1
3 20 99 1.1
3 21 99 1.1
3 22 99 1.1
3 23 99 1.1
3 24 99 1.1
3 25 99 1.1
3 26 99 1.1
3 27 99 1.1
3 28 99 1.1
3 29 99 1.1
3 30 99 1.1
3 31 99 1.1
3 32 99 1.1
3 33 99 1.1
3 34 99 1.1
3 35 99 1.1
3 36 99 1.1
3 37 99 1.1
3 38 99 1.1
3 39 99 1.1
3 40 99 1.1
3 41 99 1.1
3 42 99 1.1
3 43 99 1.1
3 44 99 1.1
3 45 99 1.1
3 46 99 1.1
3 47 99 1.1
3 48 99 1.1
3 49 99 1.1
4 5 99 1.1
4 6 99 1.1
4 7 99 1.1
4 8 99 1.1
4 9 99 1.1
4 10 99 1.1
4 11 99 1.1
4 12 99 1.1
4 13 99 1.1
4 14 99 1.1
4 15 99 1.1
4 16 99 1.1
4 17 99 1.1
4 18 99 1.1
4 19 99 1.1
4 20 99 1.1
4 21 99 1.1
4 22 99 1.1
4 23 99 1.1
4 24 99 1.1
4 25 99 1.1
4 26 99 1.1
4 27 99 1.1
4 28 99 1.1
4 29 99 1.1
4 30 99 1.1
4 31 99 1.1
4 32 99 1.1
4 33 99 1.1
4 34 99 1.1
4 35 99 1.1
4 36 99 1.1
4 37 99 1.1
4 38 99 1.1
4 39 99 1.1
4 40 99 1.1
4 41 99 1.1
4 42 99 1.1
4 43 99 1.1
4 44 99 1.1
4 45 99 1.1
4 46 99 1.1
4 47 99 1.1
4 48 99 1.1
4 49 99 1.1
5 6 99 1.1
5 7 99 1.1
5 8 99 1.1
5 9 99 1.1
5 10 99 1.1
5 11 99 1.1
5 12 99 1.1
5 13 99 1.1
5 14 99 1.1
5 15 99 1.1
5 16 99 1.1
5 17 99 1.1
5 18 99 1.1
5 19 99 1.1
5 20 99 1.1
5 21 99 1.1
5 22 99 1.1
5 23 99 1.1
5 24 99 1.1
5 25 99 1.1
5 26 99 1.1
5 27 99 1.1
5 28 99 1.1
5 29 99 1.1
5 30 99 1.1
5 31 99 1.1
5 32 99 1.1
5 33 99 1.1
5 34 99 1.1
5 35 99 1.1
5 36 99 1.1
5 37 99 1.1
5 38 99 1.1
5 39 99 1.1
5 40 99 1.1
5 41 99 1.1
5 42 99 1.1
5 43 99 1.1
5 44 99 1.1
5 45 99 1.1
5 46 99 1.1
5 47 99 1.1
5 48 99 1.1
5 49 99 1.1
6 7 99 1.1
6 8 99 1.1
6 9 99 1.1
6 10 99 1.1
6 11 99 1.1
6 12 99 1.1
6 13 99 1.1
6 14 99 1.1
6 15 99 1.1
6 16 99 1.1
6 17 99 1.1
6 18 99 1.1
6 19 99 1.1
6 20 99 1.1
6 21 99 1.1
6 22 99 1.1
6 23 99 1.1
6 24 99 1.1
6 25 99 1.1
6 26 99 1.1
6 27 99 1.1
6 28 99 1.1
6 29 99 1.1
6 30 99 1.1
6 31 99 1.1
6 32 99 1.1
6 33 99 1.1
6 34 99 1.1
6 35 99 1.1
6 36 99 1.1
6 37 99 1.1
6 38 99 1.1
6 39 99 1.1
6 40 99 1.1
6 41 99 1.1
6 42 99 1.1
6 43 99 1.1
6 44 99 1.1
6 45 99 1.1
6 46 99 1.1
6 47 99 1.1
6 48 99 1.1
6 49 99 1.1
7 8 99 1.1
7 9 99 1.1
7 10 99 1.1
7 11 99 1.1
7 12 99 1.1
7 13 99 1.1
7 14 99 1.1
7 15 99 1.1
7 16 99 1.1
7 17 99 1.1
7 18 99 1.1
7 19 99 1.1
7 20 99 1.1
7 21 99 1.1
7 22 99 1.1
7 23 99 1.1
7 24 99 1.1
7 25 99 1.1
7 26 99 1.1
7 27 99 1.1
7 28 99 1.1
7 29 99 1.1
7 30 99 1.1
7 31 99 1.1
7 32 99 1.1
7 33 99 1.1
7 34 99 1.1
7 35 99 1.1
7 36 99 1.1
7 37 99 1.1
7 38 99 1.1
7 39 99 1.1
7 40 99 1.1
7 41 99 1.1
7 42 99 1.1
7 43 99 1.1
7 44 99 1.1
7 45 99 1.1
7 46 99 1.1
7 47 99 1.1
7 48 99 1.1
7 49 99 1.1
8 9 99 1.1
8 10 99 1.1
8 11 99 1.1
8 12 99 1.1
8 13 99 1.1
8 14 99 1.1
8 15 99 1.1
8 16 99 1.1
8 17 99 1.1
8 18 99 1.1
8 19 99 1.1
8 20 99 1.1
8 21 99 1.1
8 22 99 1.1
8 23 99 1.1
8 24 99 1.1
8 25 99 1.1
8 26 99 1.1
8 27 99 1.1
8 28 99 1.1
8 29 99 1.1
8 30 99 1.1
8 31 99 1.1
8 32 99 1.1
8 33 99 1.1
8 34 99 1.1
8 35 99 1.1
8 36 99 1.1
8 37 99 1.1
8 38 99 1.1
8 39 99 1.1
8 40 99 1.1
8 41 99 1.1
8 42 99 1.1
8 43 99 1.1
8 44 99 1.1
8 45 99 1.1
8 46 99 1.1
8 47 99 1.1
8 48 99 1.1
8 49 99 1.1
9 10 99 1.1
9 11 99 1.1
9 12 99 1.1
9 13 99 1.1
9 14 99 1.1
9 15 99 1.1
9 16 99 1.1
9 17 99 1.1
9 18 99 1.1
9 19 99 1.1
9 20 99 1.1
9 21 99 1.1
9 22 99 1.1
9 23 99 1.1
9 24 99 1.1
9 25 99 1.1
9 26 99 1.1
9 27 99 1.1
9 28 99 1.1
9 29 99 1.1
9 30 99 1.1
9 31 99 1.1
9 32 99 1.1
9 33 99 1.1
9 34 99 1.1
9 35 99 1.1
9 36 99 1.1
9 37 99 1.1
9 38 99 1.1
9 39 99 1.1
9 40 99 1.1
9 41 99 1.1
9 42 99 1.1
9 43 99 1.1
9 44 99 1.1
9 45 99 1.1
9 46 99 1.1
9 47 99 1.1
9 48 99 1.1
9 49 99 1.1
10 11 99 1.1
10 12 99 1.1
10 13 99 1.1
10 14 99 1.1
10 15 99 1.1
10 16 99 1.1
10 17 99 1.1
10 18 99 1.1
10 19 99 1.1
10 20 99 1.1
10 21 99 1.1
10 22 99 1.1
10 23 99 1.1
10 24 99 1.1
10 25 99 1.1
10 26 99 1.1
10 27 99 1.1
10 28 99 1.1
10 29 99 1.1
10 30 99 1.1
10 31 99 1.1
10 32 99 1.1
10 33 99 1.1
10 34 99 1.1
10 35 99 1.1
10 36 99 1.1
10 37 99 1.1
10 38 99 1.1
10 39 99 1.1
10 40 99 1.1
10 41 99 1.1
10 42 99 1.1
10 43 99 1.1
10 44 99 1.1
10 45 99 1.1
10 46 99 1.1
10 47 99 1.1
10 48 99 1.1
10 49 99 1.1
11 12 99 1.1
11 13 99 1.1
11 14 99 1.1
11 15 99 1.1
11 16 99 1.1
11 17 99 1.1
11 18 99 1.1
11 19 99 1.1
11 20 99 1.1
11 21 99 1.1
11 22 99 1.1
11 23 99 1.1
11 24 99 1.1
11 25 99 1.1
11 26 99 1.1
11 27 99 1.1
11 28 99 1.1
11 29 99 1.1
11 30 99 1.1
11 31 99 1.1
11 32 99 1.1
11 33 99 1.1
11 34 99 1.1
11 35 99 1.1
11 36 99 1.1
11 37 99 1.1
11 38 99 1.1
11 39 99 1.1
11 40 99 1.1
11 41 99 1.1
11 42 99 1.1
11 43 99 1.1
11 44 99 1.1
11 45 99 1.1
11 46 99 1.1
11 47 99 1.1
11 48 99 1.1
11 49 99 1.1
12 13 99 1.1
12 14 99 1.1
12 15 99 1.1
12 16 99 1.1
12 17 99 1.1
12 18 99 1.1
12 19 99 1.1
12 20 99 1.1
12 21 99 1.1
12 22 99 1.1
12 23 99 1.1
12 24 99 1.1
12 25 99 1.1
12 26 99 1.1
12 27 99 1.1
12 28 99 1.1
12 29 99 1.1
12 30 99 1.1
12 31 99 1.1
12 32 99 1.1
12 33 99 1.1
12 34 99 1.1
12 35 99 1.1
12 36 99 1.1
12 37 99 1.1
12 38 99 1.1
12 39 99 1.1
12 40 99 1.1
12 41 99 1.1
12 42 99 1.1
12 43 99 1.1
12 44 99 1.1
12 45 99 1.1
12 46 99 1.1
12 47 99 1.1
12 48 99 1.1
12 49 99 1.1
13 14 99 1.1
13 15 99 1.1
13 16 99 1.1
13 17 99 1.1
13 18 99 1.1
13 19 99 1.1
13 20 99 1.1
13 21 99 1.1
13 22 99 1.1
13 23 99 1.1
13 24 99 1.1
13 25 99 1.1
13 26 99 1.1
13 27 99 1.1
13 28 99 1.1
13 29 99 1.1
13 30 99 1.1
13 31 99 1.1
13 32 99 1.1
13 33 99 1.1
13 34 99 1.1
13 35 99 1.1
13 36 99 1.1
13 37 99 1.1
13 38 99 1.1
13 39 99 1.1
13 40 99 1.1
13 41 99 1.1
13 42 99 1.1
13 43 99 1.1
13 44 99 1.1
13 45 99 1.1
13 46 99 1.1
13 47 99 1.1
13 48 99 1.1
13 49 99 1.1
14 15 99 1.1
14 16 99 1.1
14 17 99 1.1
14 18 99 1.1
14 19 99 1.1
14 20 99 1.1
14 21 99 1.1
14 22 99 1.1
14 23 99 1.1
14 24 99 1.1
14 25 99 1.1
14 26 99 1.1
14 27 99 1.1
14 28 99 1.1
14 29 99 1.1
14 30 99 1.1
14 31 99 1.1
14 32 99 1.1
14 33 99 1.1
14 34 99 1.1
14 35 99 1.1
14 36 99 1.1
14 37 99 1.1
14 38 99 1.1
14 39 99 1.1
14 40 99 1.1
14 41 99 1.1
14 42 99 1.1
14 43 99 1.1
14 44 99 1.1
14 45 99 1.1
14 46 99 1.1
14 47 99 1.1
14 48 99 1.1
14 49 99 1.1
15 16 99 1.1
15 17 99 1.1
15 18 99 1.1
15 19 99 1.1
15 20 99 1.1
15 21 99 1.1
15 22 99 1.1
15 23 99 1.1
15 24 99 1.1
15 25 99 1.1
15 26 99 1.1
15 27 99 1.1
15 28 99 1.1
15 29 99 1.1
15 30 99 1.1
15 31 99 1.1
15 32 99 1.1
15 33 99 1.1
15 34 99 1.1
15 35 99 1.1
15 36 99 1.1
15 37 99 1.1
15 38 99 1.1
15 39 99 1.1
15 40 99 1.1
15 41 99 1.1
15 42 99 1.1
15 43 99 1.1
15 44 99 1.1
15 45 99 1.1
15 46 99 1.1
15 47 99 1.1
15 48 99 1.1
15 49 99 1.1
16 17 99 1.1
16 18 99 1.1
16 19 99 1.1
16 20 99 1.1
16 21 99 1.1
16 22 99 1.1
16 23 99 1.1
16 24 99 1.1
16 25 99 1.1
16 26 99 1.1
16 27 99 1.1
16 28 99 1.1
16 29 99 1.1
16 30 99 1.1
16 31 99 1.1
16 32 99 1.1
16 33 99 1.1
16 34 99 1.1
16 35 99 1.1
16 36 99 1.1
16 37 99 1.1
16 38 99 1.1
16 39 99 1.1
16 40 99 1.1
16 41 99 1.1
16 42 99 1.1
16 43 99 1.1
16 44 99 1.1
16 45 99 1.1
16 46 99 1.1
16 47 99 1.1
16 48 99 1.1
16 49 99 1.1
17 18 99 1.1
17 19 99 1.1
17 20 99 1.1
17 21 99 1.1
17 22 99 1.1
17 23 99 1.1
17 24 99 1.1
17 25 99 1.1
17 26 99 1.1
17 27 99 1.1
17 28 99 1.1
17 29 99 1.1
17 30 99 1.1
17 31 99 1.1
17 32 99 1.1
17 33 99 1.1
17 34 99 1.1
17 35 99 1.1
17 36 99 1.1
17 37 99 1.1
17 38 99 1.1
17 39 99 1.1
17 40 99 1.1
17 41 99 1.1
17 42 99 1.1
17 43 99 1.1
17 44 99 1.1
17 45 99 1.1
17 46 99 1.1
17 47 99 1.1
17 48 99 1.1
17 49 99 1.1
18 19 99 1.1
18 20 99 1.1
18 21 99 1.1
18 22 99 1.1
18 23 99 1.1
18 24 99 1.1
18 25 99 1.1
18 26 99 1.1
18 27 99 1.1
18 28 99 1.1
18 29 99 1.1
18 30 99 1.1
18 31 99 1.1
18 32 99 1.1
18 33 99 1.1
18 34 99 1.1
18 35 99 1.1
18 36 99 1.1
18 37 99 1.1
18 38 99 1.1
18 39 99 1.1
18 40 99 1.1
18 41 99 1.1
18 42 99 1.1
18 43 99 1.1
18 44 99 1.1
18 45 99 1.1
18 46 99 1.1
18 47 99 1.1
18 48 99 1.1
18 49 99 1.1
19 20 99 1.1
19 21 99 1.1
19 22 99 1.1
19 23 99 1.1
19 24 99 1.1
19 25 99 1.1
19 26 99 1.1
19 27 99 1.1
19 28 99 1.1
19 29 99 1.1
19 30 99 1.1
19 31 99 1.1
19 32 99 1.1
19 33 99 1.1
19 34 99 1.1
19 35 99 1.1
19 36 99 1.1
19 37 99 1.1
19 38 99 1.1
19 39 99 1.1
19 40 99 1.1
19 41 99 1.1
19 42 99 1.1
19 43 99 1.1
19 44 99 1.1
19 45 99 1.1
19 46 99 1.1
19 47 99 1.1
19 48 99 1.1
19 49 99 1.1
20 21 99 1.1
20 22 99 1.1
20 23 99 1.1
20 24 99 1.1
20 25 99 1.1
20 26 99 1.1
20 27 99 1.1
20 28 99 1.1
20 29 99 1.1
20 30 99 1.1
20 31 99 1.1
20 32 99 1.1
20 33 99 1.1
20 34 99 1.1
20 35 99 1.1
20 36 99 1.1
20 37 99 1.1
20 38 99 1.1
20 39 99 1.1
20 40 99 1.1
20 41 99 1.1
20 42 99 1.1
20 43 99 1.1
20 44 99 1.1
20 45 99 1.1
20 46 99 1.1
20 47 99 1.1
20 48 99 1.1
20 49 99 1.1
21 22 99 1.1
21 23 99 1.1
21 24 99 1.1
21 25 99 1.1
21 26 99 1.1
21 27 99 1.1
21 28 99 1.1
21 29 99 1.1
21 30 99 1.1
21 31 99 1.1
21 32 99 1.1
21 33 99 1.1
21 34 99 1.1
21 35 99 1.1
21 36 99 1.1
21 37 99 1.1
21 38 99 1.1
21 39 99 1.1
21 40 99 1.1
21 41 99 1.1
21 42 99 1.1
21 43 99 1.1
21 44 99 1.1
21 45 99 1.1
21 46 99 1.1
21 47 99 1.1
21 48 99 1.1
21 49 99 1.1
22 23 99 1.1
22 24 99 1.1
22 25 99 1.1
22 26 99 1.1
22 27 99 1.1
22 28 99 1.1
22 29 99 1.1
22 30 99 1.1
22 31 99 1.1
22 32 99 1.1
22 33 99 1.1
22 34 99 1.1
22 35 99 1.1
22 36 99 1.1
22 37 99 1.1
22 38 99 1.1
22 39 99 1.1
22 40 99 1.1
22 41 99 1.1
22 42 99 1.1
22 43 99 1.1
22 44 99 1.1
22 45 99 1.1
22 46 99 1.1
22 47 99 1.1
22 48 99 1.1
22 49 99 1.1
23 24 99 1.1
23 25 99 1.1
23 26 99 1.1
23 27 99 1.1
23 28 99 1.1
23 29 99 1.1
23 30 99 1.1
23 31 99 1.1
23 32 99 1.1
23 33 99 1.1
23 34 99 1.1
23 35 99 1.1
23 36 99 1.1
23 37 99 1.1
23 38 99 1.1
23 39 99 1.1
23 40 99 1.1
23 41 99 1.1
23 42 99 1.1
23 43 99 1.1
23 44 99 1.1
23 45 99 1.1
23 46 99 1.1
23 47 99 1.1
23 48 99 1.1
23 49 99 1.1
24 25 99 1.1
24 26 99 1.1
24 27 99 1.1
24 28 99 1.1
24 29 99 1.1
24 30 99 1.1
24 31 99 1.1
24 32 99 1.1
24 33 99 1.1
24 34 99 1.1
24 35 99 1.1
24 36 99 1.1
24 37 99 1.1
24 38 99 1.1
24 39 99 1.1
24 40 99 1.1
24 41 99 1.1
24 42 99 1.1
24 43 99 1.1
24 44 99 1.1
24 45 99 1.1
24 46 99 1.1
24 47 99 1.1
24 48 99 1.1
24 49 99 1.1
25 26 99 1.1
25 27 99 1.1
25 28 99 1.1
25 29 99 1.1
25 30 99 1.1
25 31 99 1.1
25 32 99 1.1
25 33 99 1.1
25 34 99 1.1
25 35 99 1.1
25 36 99 1.1
25 37 99 1.1
25 38 99 1.1
25 39 99 1.1
25 40 99 1.1
25 41 99 1.1
25 42 99 1.1
25 43 99 1.1
25 44 99 1.1
25 45 99 1.1
25 46 99 1.1
25 47 99 1.1
25 48 99 1.1
25 49 99 1.1
26 27 99 1.1
26 28 99 1.1
26 29 99 1.1
26 30 99 1.1
26 31 99 1.1
26 32 99 1.1
26 33 99 1.1
26 34 99 1.1
26 35 99 1.1
26 36 99 1.1
26 37 99 1.1
26 38 99 1.1
26 39 99 1.1
26 40 99 1.1
26 41 99 1.1
26 42 99 1.1
26 43 99 1.1
26 44 99 1.1
26 45 99 1.1
26 46 99 1.1
26 47 99 1.1
26 48 99 1.1
26 49 99 1.1
27 28 99 1.1
27 29 99 1.1
27 30 99 1.1
27 31 99 1.1
27 32 99 1.1
27 33 99 1.1
27 34 99 1.1
27 35 99 1.1
27 36 99 1.1
27 37 99 1.1
27 38 99 1.1
27 39 99 1.1
27 40 99 1.1
27 41 99 1.1
27 42 99 1.1
27 43 99 1.1
27 44 99 1.1
27 45 99 1.1
27 46 99 1.1
27 47 99 1.1
27 48 99 1.1
27 49 99 1.1
28 29 99 1.1
28 30 99 1.1
28 31 99 1.1
28 32 99 1.1
28 33 99 1.1
28 34 99 1.1
28 35 99 1.1
28 36 99 1.1
28 37 99 1.1
28 38 99 1.1
28 39 99 1.1
28 40 99 1.1
28 41 99 1.1
28 42 99 1.1
28 43 99 1.1
28 44 99 1.1
28 45 99 1.1
28 46 99 1.1
28 47 99 1.1
28 48 99 1.1
28 49 99 1.1
29 30 99 1.1
29 31 99 1.1
29 32 99 1.1
29 33 99 1.1
29 34 99 1.1
29 35 99 1.1
29 36 99 1.1
29 37 99 1.1
29 38 99 1.1
29 39 99 1.1
29 40 99 1.1
29 41 99 1.1
29 42 99 1.1
29 43 99 1.1
29 44 99 1.1
29 45 99 1.1
29 46 99 1.1
29 47 99 1.1
29 48 99 1.1
29 49 99 1.1
30 31 99 1.1
30 32 99 1.1
30 33 99 1.1
30 34 99 1.1
30 35 99 1.1
30 36 99 1.1
30 37 99 1.1
30 38 99 1.1
30 39 99 1.1
30 40 99 1.1
30 41 99 1.1
30 42 99 1.1
30 43 99 1.1
30 44 99 1.1
30 45 99 1.1
30 46 99 1.1
30 47 99 1.1
30 48 99 1.1
30 49 99 1.1
31 32 99 1.1
31 33 99 1.1
31 34 99 1.1
31 35 99 1.1
31 36 99 1.1
31 37 99 1.1
31 38 99 1.1
31 39 99 1.1
31 40 99 1.1
31 41 99 1.1
31 42 99 1.1
31 43 99 1.1
31 44 99 1.1
31 45 99 1.1
31 46 99 1.1
31 47 99 1.1
31 48 99 1.1
31 49 99 1.1
32 33 99 1.1
32 34 99 1.1
32 35 99 1.1
32 36 99 1.1
32 37 99 1.1
32 38 99 1.1
32 39 99 1.1
32 40 99 1.1
32 41 99 1.1
32 42 99 1.1
32 43 99 1.1
32 44 99 1.1
32 45 99 1.1
32 46 99 1.1
32 47 99 1.1
32 48 99 1.1
32 49 99 1.1
33 34 99 1.1
33 35 99 1.1
33 36 99 1.1
33 37 99 1.1
33 38 99 1.1
33 39 99 1.1
33 40 99 1.1
33 41 99 1.1
33 42 99 1.1
33 43 99 1.1
33 44 99 1.1
33 45 99 1.1
33 46 99 1.1
33 47 99 1.1
33 48 99 1.1
33 49 99 1.1
34 35 99 1.1
34 36 99 1.1
34 37 99 1.1
34 38 99 1.1
34 39 99 1.1
34 40 99 1.1
34 41 99 1.1
34 42 99 1.1
34 43 99 1.1
34 44 99 1.1
34 45 99 1.1
34 46 99 1.1
34 47 99 1.1
34 48 99 1.1
34 49 99 1.1
35 36 99 1.1
35 37 99 1.1
35 38 99 1.1
35 39 99 1.1
35 40 99 1.1
35 41 99 1.1
35 42 99 1.1
35 43 99 1.1
35 44 99 1.1
35 45 99 1.1
35 46 99 1.1
35 47 99 1.1
35 48 99 1.1
35 49 99 1.1
36 37 99 1.1
36 38 99 1.1
36 39 99 1.1
36 40 99 1.1
36 41 99 1.1
36 42 99 1.1
36 43 99 1.1
36 44 99 1.1
36 45 99 1.1
36 46 99 1.1
36 47 99 1.1
36 48 99 1.1
36 49 99 1.1
37 38 99 1.1
37 39 99 1.1
37 40 99 1.1
37 41 99 1.1
37 42 99 1.1
37 43 99 1.1
37 44 99 1.1
37 45 99 1.1
37 46 99 1.1
37 47 99 1.1
37 48 99 1.1
37 49 99 1.1
38 39 99 1.1
38 40 99 1.1
38 41 99 1.1
38 42 99 1.1
38 43 99 1.1
38 44 99 1.1
38 45 99 1.1
38 46 99 1.1
38 47 99 1.1
38 48 99 1.1
38 49 99 1.1
39 40 99 1.1
39 41 99 1.1
39 42 99 1.1
39 43 99 1.1
39 44 99 1.1
39 45 99 1.1
39 46 99 1.1
39 47 99 1.1
39 48 99 1.1
39 49 99 1.1
40 41 99 1.1
40 42 99 1.1
40 43 99 1.1
40 44 99 1.1
40 45 99 1.1
40 46 99 1.1
40 47 99 1.1
40 48 99 1.1
40 49 99 1.1
41 42 99 1.1
41 43 99 1.1
41 44 99 1.1
41 45 99 1.1
41 46 99 1.1
41 47 99 1.1
41 48 99 1.1
41 49 99 1.1
42 43 99 1.1
42 44 99 1.1
42 45 99 1.1
42 46 99 1.1
42 47 99 1.1
42 48 99 1.1
42 49 99 1.1
43 44 99 1.1
43 45 99 1.1
43 46 99 1.1
43 47 99 1.1
43 48 99 1.1
43 49 99 1.1
44 45 99 1.1
44 46 99 1.1
44 47 99 1.1
44 48 99 1.1
44 49 99 1.1
45 46 99 1.1
45 47 99 1.1
45 48 99 1.1
45 49 99 1.1
46 47 99 1.1
46 48 99 1.1
46 49 99 1.1
47 48 99 1.1
47 49 99 1.1
48 49 99 1.1
